(set-logic QF_BV)

(declare-const __ESBMC_ptr_obj_start_0 (_ BitVec 64))

(declare-const __ESBMC_ptr_obj_end_0 (_ BitVec 64))

(declare-const __ESBMC_ptr_obj_start_1 (_ BitVec 64))

(declare-const __ESBMC_ptr_obj_end_1 (_ BitVec 64))

(declare-const |smt_conv::__ESBMC_ptr_addr_range_0..start0| (_ BitVec 64))

(declare-const |smt_conv::__ESBMC_ptr_addr_range_0..end0| (_ BitVec 64))

(declare-const |smt_conv::__ESBMC_ptr_addr_range_1..start0| (_ BitVec 64))

(declare-const |smt_conv::__ESBMC_ptr_addr_range_1..end0| (_ BitVec 64))

(declare-const |smt_conv::smt_conv::collate_array_vals::3..start0| (_ BitVec 64))

(declare-const |smt_conv::smt_conv::collate_array_vals::3..end0| (_ BitVec 64))

(declare-const |smt_conv::smt_conv::collate_array_vals::4..start0| (_ BitVec 64))

(declare-const |smt_conv::smt_conv::collate_array_vals::4..end0| (_ BitVec 64))

(declare-const |smt_conv::smt_conv::collate_array_vals::7..start0| (_ BitVec 64))

(declare-const |smt_conv::smt_conv::collate_array_vals::7..end0| (_ BitVec 64))

(declare-const |c:@F@main::$tmp::return_value$___VERIFIER_nondet_uint$1?1!0&0#1| (_ BitVec 32))

(declare-const |nondet$symex::nondet42| (_ BitVec 32))

(declare-const |c:diamond_1-1.c@455@F@main@y?1!0&0#1| (_ BitVec 32))

(declare-const |goto_symex::guard?0!0&0#1| (_ BitVec 1))

(declare-const |c:diamond_1-1.c@433@F@main@x?1!0&0#5| (_ BitVec 32))

(declare-const |goto_symex::guard?0!0&0#2| (_ BitVec 1))

(declare-const |goto_symex::guard?0!0&0#3| (_ BitVec 1))

(declare-const |c:diamond_1-1.c@433@F@main@x?1!0&0#6| (_ BitVec 32))

(declare-const |c:diamond_1-1.c@433@F@main@x?1!0&0#7| (_ BitVec 32))

(declare-const |c:diamond_1-1.c@433@F@main@x?1!0&0#8| (_ BitVec 32))

(declare-const |c:diamond_1-1.c@433@F@main@x?1!0&0#9| (_ BitVec 32))

(declare-const |goto_symex::guard?0!0&0#4| (_ BitVec 1))

(declare-const |goto_symex::guard?0!0&0#5| (_ BitVec 1))

(declare-const |c:diamond_1-1.c@433@F@main@x?1!0&0#10| (_ BitVec 32))

(declare-const |c:diamond_1-1.c@433@F@main@x?1!0&0#11| (_ BitVec 32))

(declare-const |c:diamond_1-1.c@433@F@main@x?1!0&0#12| (_ BitVec 32))

(declare-const |c:diamond_1-1.c@433@F@main@x?1!0&0#13| (_ BitVec 32))

(declare-const |goto_symex::guard?0!0&0#6| (_ BitVec 1))

(declare-const |goto_symex::guard?0!0&0#7| (_ BitVec 1))

(declare-const |c:diamond_1-1.c@433@F@main@x?1!0&0#14| (_ BitVec 32))

(declare-const |c:diamond_1-1.c@433@F@main@x?1!0&0#15| (_ BitVec 32))

(declare-const |c:diamond_1-1.c@433@F@main@x?1!0&0#16| (_ BitVec 32))

(declare-const |c:diamond_1-1.c@433@F@main@x?1!0&0#17| (_ BitVec 32))

(declare-const |goto_symex::guard?0!0&0#8| (_ BitVec 1))

(declare-const |goto_symex::guard?0!0&0#9| (_ BitVec 1))

(declare-const |c:diamond_1-1.c@433@F@main@x?1!0&0#18| (_ BitVec 32))

(declare-const |c:diamond_1-1.c@433@F@main@x?1!0&0#19| (_ BitVec 32))

(declare-const |c:diamond_1-1.c@433@F@main@x?1!0&0#20| (_ BitVec 32))

(declare-const |c:diamond_1-1.c@433@F@main@x?1!0&0#21| (_ BitVec 32))

(declare-const |goto_symex::guard?0!0&0#10| (_ BitVec 1))

(declare-const |goto_symex::guard?0!0&0#11| (_ BitVec 1))

(declare-const |c:diamond_1-1.c@433@F@main@x?1!0&0#22| (_ BitVec 32))

(declare-const |c:diamond_1-1.c@433@F@main@x?1!0&0#23| (_ BitVec 32))

(declare-const |c:diamond_1-1.c@433@F@main@x?1!0&0#24| (_ BitVec 32))

(declare-const |c:diamond_1-1.c@433@F@main@x?1!0&0#25| (_ BitVec 32))

(declare-const |goto_symex::guard?0!0&0#12| (_ BitVec 1))

(declare-const |goto_symex::guard?0!0&0#13| (_ BitVec 1))

(declare-const |c:diamond_1-1.c@433@F@main@x?1!0&0#26| (_ BitVec 32))

(declare-const |c:diamond_1-1.c@433@F@main@x?1!0&0#27| (_ BitVec 32))

(declare-const |c:diamond_1-1.c@433@F@main@x?1!0&0#28| (_ BitVec 32))

(declare-const |c:diamond_1-1.c@433@F@main@x?1!0&0#29| (_ BitVec 32))

(declare-const |goto_symex::guard?0!0&0#14| (_ BitVec 1))

(declare-const |goto_symex::guard?0!0&0#15| (_ BitVec 1))

(declare-const |c:diamond_1-1.c@433@F@main@x?1!0&0#30| (_ BitVec 32))

(declare-const |c:diamond_1-1.c@433@F@main@x?1!0&0#31| (_ BitVec 32))

(declare-const |c:diamond_1-1.c@433@F@main@x?1!0&0#32| (_ BitVec 32))

(declare-const |c:diamond_1-1.c@433@F@main@x?1!0&0#33| (_ BitVec 32))

(declare-const |goto_symex::guard?0!0&0#16| (_ BitVec 1))

(declare-const |goto_symex::guard?0!0&0#17| (_ BitVec 1))

(declare-const |c:diamond_1-1.c@433@F@main@x?1!0&0#34| (_ BitVec 32))

(declare-const |c:diamond_1-1.c@433@F@main@x?1!0&0#35| (_ BitVec 32))

(declare-const |c:diamond_1-1.c@433@F@main@x?1!0&0#36| (_ BitVec 32))

(declare-const |c:diamond_1-1.c@433@F@main@x?1!0&0#37| (_ BitVec 32))

(declare-const |goto_symex::guard?0!0&0#18| (_ BitVec 1))

(declare-const |goto_symex::guard?0!0&0#19| (_ BitVec 1))

(declare-const |c:diamond_1-1.c@433@F@main@x?1!0&0#38| (_ BitVec 32))

(declare-const |c:diamond_1-1.c@433@F@main@x?1!0&0#39| (_ BitVec 32))

(declare-const |c:diamond_1-1.c@433@F@main@x?1!0&0#40| (_ BitVec 32))

(declare-const |c:diamond_1-1.c@433@F@main@x?1!0&0#41| (_ BitVec 32))

(declare-const |goto_symex::guard?0!0&0#20| (_ BitVec 1))

(declare-const |goto_symex::guard?0!0&0#21| (_ BitVec 1))

(declare-const |c:diamond_1-1.c@433@F@main@x?1!0&0#42| (_ BitVec 32))

(declare-const |c:diamond_1-1.c@433@F@main@x?1!0&0#43| (_ BitVec 32))

(declare-const |c:diamond_1-1.c@433@F@main@x?1!0&0#44| (_ BitVec 32))

(declare-const |c:diamond_1-1.c@433@F@main@x?1!0&0#45| (_ BitVec 32))

(declare-const |goto_symex::guard?0!0&0#22| (_ BitVec 1))

(declare-const |c:diamond_1-1.c@433@F@main@x?1!0&0#50| (_ BitVec 32))

(declare-const |c:diamond_1-1.c@433@F@main@x?1!0&0#51| (_ BitVec 32))

(declare-const |c:diamond_1-1.c@433@F@main@x?1!0&0#52| (_ BitVec 32))

(declare-const |c:diamond_1-1.c@433@F@main@x?1!0&0#53| (_ BitVec 32))

(declare-const |c:diamond_1-1.c@433@F@main@x?1!0&0#54| (_ BitVec 32))

(declare-const |c:diamond_1-1.c@433@F@main@x?1!0&0#55| (_ BitVec 32))

(declare-const |c:diamond_1-1.c@433@F@main@x?1!0&0#56| (_ BitVec 32))

(declare-const |c:diamond_1-1.c@433@F@main@x?1!0&0#57| (_ BitVec 32))

(declare-const |c:diamond_1-1.c@433@F@main@x?1!0&0#58| (_ BitVec 32))

(declare-const |c:diamond_1-1.c@433@F@main@x?1!0&0#59| (_ BitVec 32))

(declare-const |c:diamond_1-1.c@433@F@main@x?1!0&0#60| (_ BitVec 32))

(declare-const |c:diamond_1-1.c@332@F@__VERIFIER_assert@cond?1!0&0#1| (_ BitVec 32))

(declare-const |goto_symex::guard?0!0&0#24| (_ BitVec 1))

(declare-const |execution_statet::guard_exec?0!0| (_ BitVec 1))

(define-fun $e1 () (_ BitVec 32) 

 (bvurem |c:diamond_1-1.c@455@F@main@y?1!0&0#1| #b00000000000000000000000000000010))

(define-fun $e2 () Bool 

 (= #b00000000000000000000000000000000 $e1))

(assert 

 (= __ESBMC_ptr_obj_start_0 #b0000000000000000000000000000000000000000000000000000000000000000))

(assert 

 (= #b0000000000000000000000000000000000000000000000000000000000000000 __ESBMC_ptr_obj_end_0))

(assert 

 (= __ESBMC_ptr_obj_start_1 #b0000000000000000000000000000000000000000000000000000000000000001))

(assert 

 (= #b1111111111111111111111111111111111111111111111111111111111111111 __ESBMC_ptr_obj_end_1))

(assert 

 (= __ESBMC_ptr_obj_end_0 |smt_conv::__ESBMC_ptr_addr_range_0..end0|))

(assert 

 (= __ESBMC_ptr_obj_start_0 |smt_conv::__ESBMC_ptr_addr_range_0..start0|))

(assert 

 (= __ESBMC_ptr_obj_end_1 |smt_conv::__ESBMC_ptr_addr_range_1..end0|))

(assert 

 (= __ESBMC_ptr_obj_start_1 |smt_conv::__ESBMC_ptr_addr_range_1..start0|))

(assert 

 (= |smt_conv::smt_conv::collate_array_vals::3..end0| |smt_conv::smt_conv::collate_array_vals::4..end0|))

(assert 

 (= |smt_conv::smt_conv::collate_array_vals::3..start0| |smt_conv::smt_conv::collate_array_vals::4..start0|))

(assert 

 (= __ESBMC_ptr_obj_end_0 |smt_conv::smt_conv::collate_array_vals::7..end0|))

(assert 

 (= __ESBMC_ptr_obj_start_0 |smt_conv::smt_conv::collate_array_vals::7..start0|))

(assert 

 (= |c:@F@main::$tmp::return_value$___VERIFIER_nondet_uint$1?1!0&0#1| |nondet$symex::nondet42|))

(assert 

 (= |c:@F@main::$tmp::return_value$___VERIFIER_nondet_uint$1?1!0&0#1| |c:diamond_1-1.c@455@F@main@y?1!0&0#1|))

(assert 

 (= |goto_symex::guard?0!0&0#1| 

  (ite $e2 #b1 #b0)))

(assert 

 (= |c:diamond_1-1.c@433@F@main@x?1!0&0#5| 

  (ite 

   (= #b1 |goto_symex::guard?0!0&0#1|) #b00000000000000000000000000000010 #b00000000000000000000000000000001)))

(assert 

 (= |goto_symex::guard?0!0&0#2| 

  (ite 

   (bvult |c:diamond_1-1.c@433@F@main@x?1!0&0#5| #b00000000000000000000000001100011) #b1 #b0)))

(assert 

 (= 

  (ite $e2 #b1 #b0) |goto_symex::guard?0!0&0#3|))

(assert 

 (= |c:diamond_1-1.c@433@F@main@x?1!0&0#6| 

  (bvadd #b00000000000000000000000000000010 |c:diamond_1-1.c@433@F@main@x?1!0&0#5|)))

(assert 

 (= |c:diamond_1-1.c@433@F@main@x?1!0&0#5| |c:diamond_1-1.c@433@F@main@x?1!0&0#7|))

(assert 

 (= |c:diamond_1-1.c@433@F@main@x?1!0&0#8| 

  (bvadd #b00000000000000000000000000000001 |c:diamond_1-1.c@433@F@main@x?1!0&0#7|)))

(assert 

 (= |c:diamond_1-1.c@433@F@main@x?1!0&0#9| 

  (ite 

   (= #b1 |goto_symex::guard?0!0&0#3|) |c:diamond_1-1.c@433@F@main@x?1!0&0#6| |c:diamond_1-1.c@433@F@main@x?1!0&0#8|)))

(assert 

 (= |goto_symex::guard?0!0&0#4| 

  (ite 

   (bvult |c:diamond_1-1.c@433@F@main@x?1!0&0#9| #b00000000000000000000000001100011) #b1 #b0)))

(assert 

 (= 

  (ite $e2 #b1 #b0) |goto_symex::guard?0!0&0#5|))

(assert 

 (= |c:diamond_1-1.c@433@F@main@x?1!0&0#10| 

  (bvadd #b00000000000000000000000000000010 |c:diamond_1-1.c@433@F@main@x?1!0&0#9|)))

(assert 

 (= |c:diamond_1-1.c@433@F@main@x?1!0&0#9| |c:diamond_1-1.c@433@F@main@x?1!0&0#11|))

(assert 

 (= |c:diamond_1-1.c@433@F@main@x?1!0&0#12| 

  (bvadd #b00000000000000000000000000000001 |c:diamond_1-1.c@433@F@main@x?1!0&0#11|)))

(assert 

 (= |c:diamond_1-1.c@433@F@main@x?1!0&0#13| 

  (ite 

   (= #b1 |goto_symex::guard?0!0&0#5|) |c:diamond_1-1.c@433@F@main@x?1!0&0#10| |c:diamond_1-1.c@433@F@main@x?1!0&0#12|)))

(assert 

 (= |goto_symex::guard?0!0&0#6| 

  (ite 

   (bvult |c:diamond_1-1.c@433@F@main@x?1!0&0#13| #b00000000000000000000000001100011) #b1 #b0)))

(assert 

 (= 

  (ite $e2 #b1 #b0) |goto_symex::guard?0!0&0#7|))

(assert 

 (= |c:diamond_1-1.c@433@F@main@x?1!0&0#14| 

  (bvadd #b00000000000000000000000000000010 |c:diamond_1-1.c@433@F@main@x?1!0&0#13|)))

(assert 

 (= |c:diamond_1-1.c@433@F@main@x?1!0&0#13| |c:diamond_1-1.c@433@F@main@x?1!0&0#15|))

(assert 

 (= |c:diamond_1-1.c@433@F@main@x?1!0&0#16| 

  (bvadd #b00000000000000000000000000000001 |c:diamond_1-1.c@433@F@main@x?1!0&0#15|)))

(assert 

 (= |c:diamond_1-1.c@433@F@main@x?1!0&0#17| 

  (ite 

   (= #b1 |goto_symex::guard?0!0&0#7|) |c:diamond_1-1.c@433@F@main@x?1!0&0#14| |c:diamond_1-1.c@433@F@main@x?1!0&0#16|)))

(assert 

 (= |goto_symex::guard?0!0&0#8| 

  (ite 

   (bvult |c:diamond_1-1.c@433@F@main@x?1!0&0#17| #b00000000000000000000000001100011) #b1 #b0)))

(assert 

 (= 

  (ite $e2 #b1 #b0) |goto_symex::guard?0!0&0#9|))

(assert 

 (= |c:diamond_1-1.c@433@F@main@x?1!0&0#18| 

  (bvadd #b00000000000000000000000000000010 |c:diamond_1-1.c@433@F@main@x?1!0&0#17|)))

(assert 

 (= |c:diamond_1-1.c@433@F@main@x?1!0&0#17| |c:diamond_1-1.c@433@F@main@x?1!0&0#19|))

(assert 

 (= |c:diamond_1-1.c@433@F@main@x?1!0&0#20| 

  (bvadd #b00000000000000000000000000000001 |c:diamond_1-1.c@433@F@main@x?1!0&0#19|)))

(assert 

 (= |c:diamond_1-1.c@433@F@main@x?1!0&0#21| 

  (ite 

   (= #b1 |goto_symex::guard?0!0&0#9|) |c:diamond_1-1.c@433@F@main@x?1!0&0#18| |c:diamond_1-1.c@433@F@main@x?1!0&0#20|)))

(assert 

 (= |goto_symex::guard?0!0&0#10| 

  (ite 

   (bvult |c:diamond_1-1.c@433@F@main@x?1!0&0#21| #b00000000000000000000000001100011) #b1 #b0)))

(assert 

 (= 

  (ite $e2 #b1 #b0) |goto_symex::guard?0!0&0#11|))

(assert 

 (= |c:diamond_1-1.c@433@F@main@x?1!0&0#22| 

  (bvadd #b00000000000000000000000000000010 |c:diamond_1-1.c@433@F@main@x?1!0&0#21|)))

(assert 

 (= |c:diamond_1-1.c@433@F@main@x?1!0&0#21| |c:diamond_1-1.c@433@F@main@x?1!0&0#23|))

(assert 

 (= |c:diamond_1-1.c@433@F@main@x?1!0&0#24| 

  (bvadd #b00000000000000000000000000000001 |c:diamond_1-1.c@433@F@main@x?1!0&0#23|)))

(assert 

 (= |c:diamond_1-1.c@433@F@main@x?1!0&0#25| 

  (ite 

   (= #b1 |goto_symex::guard?0!0&0#11|) |c:diamond_1-1.c@433@F@main@x?1!0&0#22| |c:diamond_1-1.c@433@F@main@x?1!0&0#24|)))

(assert 

 (= |goto_symex::guard?0!0&0#12| 

  (ite 

   (bvult |c:diamond_1-1.c@433@F@main@x?1!0&0#25| #b00000000000000000000000001100011) #b1 #b0)))

(assert 

 (= 

  (ite $e2 #b1 #b0) |goto_symex::guard?0!0&0#13|))

(assert 

 (= |c:diamond_1-1.c@433@F@main@x?1!0&0#26| 

  (bvadd #b00000000000000000000000000000010 |c:diamond_1-1.c@433@F@main@x?1!0&0#25|)))

(assert 

 (= |c:diamond_1-1.c@433@F@main@x?1!0&0#25| |c:diamond_1-1.c@433@F@main@x?1!0&0#27|))

(assert 

 (= |c:diamond_1-1.c@433@F@main@x?1!0&0#28| 

  (bvadd #b00000000000000000000000000000001 |c:diamond_1-1.c@433@F@main@x?1!0&0#27|)))

(assert 

 (= |c:diamond_1-1.c@433@F@main@x?1!0&0#29| 

  (ite 

   (= #b1 |goto_symex::guard?0!0&0#13|) |c:diamond_1-1.c@433@F@main@x?1!0&0#26| |c:diamond_1-1.c@433@F@main@x?1!0&0#28|)))

(assert 

 (= |goto_symex::guard?0!0&0#14| 

  (ite 

   (bvult |c:diamond_1-1.c@433@F@main@x?1!0&0#29| #b00000000000000000000000001100011) #b1 #b0)))

(assert 

 (= 

  (ite $e2 #b1 #b0) |goto_symex::guard?0!0&0#15|))

(assert 

 (= |c:diamond_1-1.c@433@F@main@x?1!0&0#30| 

  (bvadd #b00000000000000000000000000000010 |c:diamond_1-1.c@433@F@main@x?1!0&0#29|)))

(assert 

 (= |c:diamond_1-1.c@433@F@main@x?1!0&0#29| |c:diamond_1-1.c@433@F@main@x?1!0&0#31|))

(assert 

 (= |c:diamond_1-1.c@433@F@main@x?1!0&0#32| 

  (bvadd #b00000000000000000000000000000001 |c:diamond_1-1.c@433@F@main@x?1!0&0#31|)))

(assert 

 (= |c:diamond_1-1.c@433@F@main@x?1!0&0#33| 

  (ite 

   (= #b1 |goto_symex::guard?0!0&0#15|) |c:diamond_1-1.c@433@F@main@x?1!0&0#30| |c:diamond_1-1.c@433@F@main@x?1!0&0#32|)))

(assert 

 (= |goto_symex::guard?0!0&0#16| 

  (ite 

   (bvult |c:diamond_1-1.c@433@F@main@x?1!0&0#33| #b00000000000000000000000001100011) #b1 #b0)))

(assert 

 (= 

  (ite $e2 #b1 #b0) |goto_symex::guard?0!0&0#17|))

(assert 

 (= |c:diamond_1-1.c@433@F@main@x?1!0&0#34| 

  (bvadd #b00000000000000000000000000000010 |c:diamond_1-1.c@433@F@main@x?1!0&0#33|)))

(assert 

 (= |c:diamond_1-1.c@433@F@main@x?1!0&0#33| |c:diamond_1-1.c@433@F@main@x?1!0&0#35|))

(assert 

 (= |c:diamond_1-1.c@433@F@main@x?1!0&0#36| 

  (bvadd #b00000000000000000000000000000001 |c:diamond_1-1.c@433@F@main@x?1!0&0#35|)))

(assert 

 (= |c:diamond_1-1.c@433@F@main@x?1!0&0#37| 

  (ite 

   (= #b1 |goto_symex::guard?0!0&0#17|) |c:diamond_1-1.c@433@F@main@x?1!0&0#34| |c:diamond_1-1.c@433@F@main@x?1!0&0#36|)))

(assert 

 (= |goto_symex::guard?0!0&0#18| 

  (ite 

   (bvult |c:diamond_1-1.c@433@F@main@x?1!0&0#37| #b00000000000000000000000001100011) #b1 #b0)))

(assert 

 (= 

  (ite $e2 #b1 #b0) |goto_symex::guard?0!0&0#19|))

(assert 

 (= |c:diamond_1-1.c@433@F@main@x?1!0&0#38| 

  (bvadd #b00000000000000000000000000000010 |c:diamond_1-1.c@433@F@main@x?1!0&0#37|)))

(assert 

 (= |c:diamond_1-1.c@433@F@main@x?1!0&0#37| |c:diamond_1-1.c@433@F@main@x?1!0&0#39|))

(assert 

 (= |c:diamond_1-1.c@433@F@main@x?1!0&0#40| 

  (bvadd #b00000000000000000000000000000001 |c:diamond_1-1.c@433@F@main@x?1!0&0#39|)))

(assert 

 (= |c:diamond_1-1.c@433@F@main@x?1!0&0#41| 

  (ite 

   (= #b1 |goto_symex::guard?0!0&0#19|) |c:diamond_1-1.c@433@F@main@x?1!0&0#38| |c:diamond_1-1.c@433@F@main@x?1!0&0#40|)))

(assert 

 (= |goto_symex::guard?0!0&0#20| 

  (ite 

   (bvult |c:diamond_1-1.c@433@F@main@x?1!0&0#41| #b00000000000000000000000001100011) #b1 #b0)))

(assert 

 (= 

  (ite $e2 #b1 #b0) |goto_symex::guard?0!0&0#21|))

(assert 

 (= |c:diamond_1-1.c@433@F@main@x?1!0&0#42| 

  (bvadd #b00000000000000000000000000000010 |c:diamond_1-1.c@433@F@main@x?1!0&0#41|)))

(assert 

 (= |c:diamond_1-1.c@433@F@main@x?1!0&0#41| |c:diamond_1-1.c@433@F@main@x?1!0&0#43|))

(assert 

 (= |c:diamond_1-1.c@433@F@main@x?1!0&0#44| 

  (bvadd #b00000000000000000000000000000001 |c:diamond_1-1.c@433@F@main@x?1!0&0#43|)))

(assert 

 (= |c:diamond_1-1.c@433@F@main@x?1!0&0#45| 

  (ite 

   (= #b1 |goto_symex::guard?0!0&0#21|) |c:diamond_1-1.c@433@F@main@x?1!0&0#42| |c:diamond_1-1.c@433@F@main@x?1!0&0#44|)))

(assert 

 (= |goto_symex::guard?0!0&0#22| 

  (ite 

   (bvult |c:diamond_1-1.c@433@F@main@x?1!0&0#45| #b00000000000000000000000001100011) #b1 #b0)))

(assert 

 (= |c:diamond_1-1.c@433@F@main@x?1!0&0#45| |c:diamond_1-1.c@433@F@main@x?1!0&0#50|))

(assert 

 (= |c:diamond_1-1.c@433@F@main@x?1!0&0#51| 

  (ite 

   (= #b1 |goto_symex::guard?0!0&0#20|) |c:diamond_1-1.c@433@F@main@x?1!0&0#50| |c:diamond_1-1.c@433@F@main@x?1!0&0#41|)))

(assert 

 (= |c:diamond_1-1.c@433@F@main@x?1!0&0#52| 

  (ite 

   (= #b1 |goto_symex::guard?0!0&0#18|) |c:diamond_1-1.c@433@F@main@x?1!0&0#51| |c:diamond_1-1.c@433@F@main@x?1!0&0#37|)))

(assert 

 (= |c:diamond_1-1.c@433@F@main@x?1!0&0#53| 

  (ite 

   (= #b1 |goto_symex::guard?0!0&0#16|) |c:diamond_1-1.c@433@F@main@x?1!0&0#52| |c:diamond_1-1.c@433@F@main@x?1!0&0#33|)))

(assert 

 (= |c:diamond_1-1.c@433@F@main@x?1!0&0#54| 

  (ite 

   (= #b1 |goto_symex::guard?0!0&0#14|) |c:diamond_1-1.c@433@F@main@x?1!0&0#53| |c:diamond_1-1.c@433@F@main@x?1!0&0#29|)))

(assert 

 (= |c:diamond_1-1.c@433@F@main@x?1!0&0#55| 

  (ite 

   (= #b1 |goto_symex::guard?0!0&0#12|) |c:diamond_1-1.c@433@F@main@x?1!0&0#54| |c:diamond_1-1.c@433@F@main@x?1!0&0#25|)))

(assert 

 (= |c:diamond_1-1.c@433@F@main@x?1!0&0#56| 

  (ite 

   (= #b1 |goto_symex::guard?0!0&0#10|) |c:diamond_1-1.c@433@F@main@x?1!0&0#55| |c:diamond_1-1.c@433@F@main@x?1!0&0#21|)))

(assert 

 (= |c:diamond_1-1.c@433@F@main@x?1!0&0#57| 

  (ite 

   (= #b1 |goto_symex::guard?0!0&0#8|) |c:diamond_1-1.c@433@F@main@x?1!0&0#56| |c:diamond_1-1.c@433@F@main@x?1!0&0#17|)))

(assert 

 (= |c:diamond_1-1.c@433@F@main@x?1!0&0#58| 

  (ite 

   (= #b1 |goto_symex::guard?0!0&0#6|) |c:diamond_1-1.c@433@F@main@x?1!0&0#57| |c:diamond_1-1.c@433@F@main@x?1!0&0#13|)))

(assert 

 (= |c:diamond_1-1.c@433@F@main@x?1!0&0#59| 

  (ite 

   (= #b1 |goto_symex::guard?0!0&0#4|) |c:diamond_1-1.c@433@F@main@x?1!0&0#58| |c:diamond_1-1.c@433@F@main@x?1!0&0#9|)))

(assert 

 (= |c:diamond_1-1.c@433@F@main@x?1!0&0#60| 

  (ite 

   (= #b1 |goto_symex::guard?0!0&0#2|) |c:diamond_1-1.c@433@F@main@x?1!0&0#59| |c:diamond_1-1.c@433@F@main@x?1!0&0#5|)))

(assert 

 (= |c:diamond_1-1.c@332@F@__VERIFIER_assert@cond?1!0&0#1| 

  (ite 

   (= $e1 

    (bvurem |c:diamond_1-1.c@433@F@main@x?1!0&0#60| #b00000000000000000000000000000010)) #b00000000000000000000000000000001 #b00000000000000000000000000000000)))

(assert 

 (= |goto_symex::guard?0!0&0#24| 

  (ite 

   (= #b00000000000000000000000000000000 |c:diamond_1-1.c@332@F@__VERIFIER_assert@cond?1!0&0#1|) #b1 #b0)))

(assert (= 

 (bvnot 

  (bvand 

   (bvand 

    (bvand 

     (bvand 

      (bvand 

       (bvand 

        (bvand 

         (bvand 

          (bvand 

           (bvand |goto_symex::guard?0!0&0#2| |goto_symex::guard?0!0&0#4|) |goto_symex::guard?0!0&0#6|) |goto_symex::guard?0!0&0#8|) |goto_symex::guard?0!0&0#10|) |goto_symex::guard?0!0&0#12|) |goto_symex::guard?0!0&0#14|) |goto_symex::guard?0!0&0#16|) |goto_symex::guard?0!0&0#18|) |goto_symex::guard?0!0&0#20|) |goto_symex::guard?0!0&0#22|)) #b1))

(assert (= |execution_statet::guard_exec?0!0| #b1))

(assert (= |goto_symex::guard?0!0&0#24| #b1))

(assert (= 

 (bvnot 

  (bvand |goto_symex::guard?0!0&0#2| 

   (bvand |goto_symex::guard?0!0&0#4| 

    (bvand |goto_symex::guard?0!0&0#6| 

     (bvand |goto_symex::guard?0!0&0#8| 

      (bvand |goto_symex::guard?0!0&0#10| 

       (bvand |goto_symex::guard?0!0&0#12| 

        (bvand |goto_symex::guard?0!0&0#14| 

         (bvand |goto_symex::guard?0!0&0#16| 

          (bvand |goto_symex::guard?0!0&0#18| 

           (bvand |goto_symex::guard?0!0&0#20| |goto_symex::guard?0!0&0#22|))))))))))) #b1))

(check-sat)

(exit)
